benchmarks/bfuzz0/115323182313193308104005177991422313928.smt2
(set-logic QF_FP)
(declare-const x0 (_ FloatingPoint 8 24))
(declare-const x1 (_ FloatingPoint 8 24))
(declare-const x2 (_ FloatingPoint 8 24))
(declare-const x3 (_ FloatingPoint 8 24))
(declare-const x4 (_ FloatingPoint 8 24))
(declare-const x5 (_ FloatingPoint 8 24))
(declare-const x6 (_ FloatingPoint 8 24))
(declare-const x7 (_ FloatingPoint 8 24))
(declare-const x8 (_ FloatingPoint 8 24))
(declare-const x9 (_ FloatingPoint 8 24))
(declare-const x10 (_ FloatingPoint 8 24))
(declare-const x11 (_ FloatingPoint 8 24))
(declare-const x12 (_ FloatingPoint 8 24))
(declare-const x13 (_ FloatingPoint 8 24))
(declare-const x14 (_ FloatingPoint 8 24))
(declare-const x15 (_ FloatingPoint 8 24))
(declare-const x16 (_ FloatingPoint 8 24))
(declare-const x17 (_ FloatingPoint 8 24))
(declare-const x18 (_ FloatingPoint 8 24))
(declare-const x19 (_ FloatingPoint 8 24))
(declare-const x20 (_ FloatingPoint 8 24))
(declare-const x21 (_ FloatingPoint 8 24))
(declare-const x22 (_ FloatingPoint 8 24))
(declare-const x23 (_ FloatingPoint 8 24))
(declare-const x24 (_ FloatingPoint 8 24))
(declare-const x25 (_ FloatingPoint 8 24))
(declare-const x26 (_ FloatingPoint 8 24))
(declare-const x27 (_ FloatingPoint 8 24))
(declare-const x28 (_ FloatingPoint 8 24))
(assert (fp.leq (fp.add RNE x16 x3) (fp.div RNE x27 x2)))
(assert (fp.eq (fp.div RNE x22 x22) (fp.div RNE x23 x10)))
(assert (fp.leq (fp.add RNE x22 x28) (fp.div RNE x10 x23)))
(assert (fp.geq (fp.div RNE x15 x0) (fp.neg x24)))
(assert (fp.leq (fp.sub RNE x21 x10) (fp.add RNE x15 x20)))
(assert (fp.geq (fp.mul RNE x24 x3) (fp.div RNE x25 x2)))
(assert (fp.leq (fp.div RNE x21 x17) (fp.mul RNE x28 x8)))
(assert (fp.lt (fp.mul RNE x12 x15) (fp.add RNE x12 x0)))
(assert (fp.gt (fp.mul RNE x19 x20) (fp.sub RNE x27 x6)))
(check-sat)
