db/data/115323182313193308104005177991422313928.z3.out
sat
-------------------
59.671072867
